Log-file from 'building' test run over models/adversarial_example/AdversarialConv.onnx. 
 
ONNXGurobi Build time: 0.2397 seconds 
ONNXGurobi Memory: 5.77       MByte 
Presolve call: 0.0517 seconds 


Set parameter Username
Set parameter LicenseID to value 2734490
Academic license - for non-commercial use only - expires 2026-11-07
Gurobi Optimizer version 12.0.3 build v12.0.3rc0 (win64 - Windows 11+.0 (26200.2))

CPU model: AMD Ryzen 7 5700X 8-Core Processor, instruction set [SSE2|AVX|AVX2]
Thread count: 8 physical cores, 16 logical processors, using up to 16 threads

Presolve a model with 916 rows, 2506 columns and 16232 nonzeros
Model fingerprint: 0xc719d008
Model has 796 simple general constraints
  796 MAX
Variable types: 2506 continuous, 0 integer (0 binary)
Coefficient statistics:
  Matrix range     [7e-04, 1e+00]
  Objective range  [0e+00, 0e+00]
  Bounds range     [1e+00, 1e+00]
  RHS range        [2e-03, 7e-01]
Presolve added 1074 rows and 0 columns
Presolve removed 0 rows and 130 columns
Presolve time: 0.05s
ONNXGurobi Build time: 0.2397 Seconds
ONNXGurobi Memory: 5.77       MByte

Process finished with exit code 0
